
Gurobi 9.5.1 (linux64) logging started Wed Mar  9 18:05:29 2022

Set parameter LogFile to value "../results/logs/log_2022_03_09_17_57.csv_8_80.log"
Set parameter Method to value 3
Gurobi Optimizer version 9.5.1 build v9.5.1rc2 (linux64)
Thread count: 8 physical cores, 8 logical processors, using up to 8 threads
Optimize a model with 376 rows, 9882 columns and 10225 nonzeros
Model fingerprint: 0xb822306d
Variable types: 4941 continuous, 4941 integer (4941 binary)
Coefficient statistics:
  Matrix range     [1e+00, 8e+00]
  Objective range  [1e+00, 1e+00]
  Bounds range     [1e+00, 1e+00]
  RHS range        [1e+00, 8e+01]
Found heuristic solution: objective -0.0000000
Presolve removed 253 rows and 9677 columns
Presolve time: 0.01s
Presolved: 123 rows, 205 columns, 737 nonzeros
Extracted 47 lazy constraints
Variable types: 113 continuous, 92 integer (90 binary)

Root relaxation: objective 7.622328e+01, 33 iterations, 0.00 seconds (0.00 work units)

    Nodes    |    Current Node    |     Objective Bounds      |     Work
 Expl Unexpl |  Obj  Depth IntInf | Incumbent    BestBd   Gap | It/Node Time

     0     0   76.22328    0   22   -0.00000   76.22328      -     -    0s
H    0     0                      14.0000000   76.22328   444%     -    0s
     0     0   43.17915    0   30   14.00000   43.17915   208%     -    0s
     0     0   43.08502    0   31   14.00000   43.08502   208%     -    0s
     0     0   43.07406    0   31   14.00000   43.07406   208%     -    0s
     0     0   40.90406    0   30   14.00000   40.90406   192%     -    0s
     0     0   40.58725    0   22   14.00000   40.58725   190%     -    0s
     0     0   40.58107    0   21   14.00000   40.58107   190%     -    0s
H    0     0                      27.0000000   40.58107  50.3%     -    0s
     0     0   40.07920    0   23   27.00000   40.07920  48.4%     -    0s
H    0     0                      37.0000000   40.07920  8.32%     -    0s
     0     0   40.02297    0   25   37.00000   40.02297  8.17%     -    0s
     0     0   40.00627    0   23   37.00000   40.00627  8.13%     -    0s
     0     0   39.95712    0   26   37.00000   39.95712  7.99%     -    0s
     0     0   39.95712    0   26   37.00000   39.95712  7.99%     -    0s
H    0     0                      38.0000000   39.95712  5.15%     -    0s
     0     2   39.93447    0   23   38.00000   39.93447  5.09%     -    0s
H   33    27                      39.0000000   39.50000  1.28%  13.5    0s

Cutting planes:
  Gomory: 8
  Implied bound: 7
  MIR: 56
  RLT: 2
  Relax-and-lift: 8
  Lazy constraints: 47

Explored 37 nodes (867 simplex iterations) in 0.08 seconds (0.04 work units)
Thread count was 8 (of 8 available processors)

Solution count 6: 39 38 37 ... -0

Optimal solution found (tolerance 1.00e-04)
Best objective 3.900000000000e+01, best bound 3.900000000000e+01, gap 0.0000%
